226 182530
1 2 3 4 5 6 7 8 11 12 13 65 53 52 51 50 49 28 29 30 34 36 37 44 43 154 153 152 151 195 198 199 197 196 194 193 192 191 188 187 186 184 185 189 190 136 135 134 133 109 108 116 115 106 107 110 126 128 127 129 130 124 122 120 119 118 117 114 112 113 104 105 103 111 64 61 62 63 200 201 202 203 204 205 206 208 209 210 211 132 131 91 99 96 95 41 40 42 39 38 35 27 26 25 24 23 22 21 20 17 16 9 10 14 15 18 19 54 55 56 57 58 59 60 183 182 181 180 179 178 177 176 175 143 142 147 145 139 137 70 69 72 71 68 67 66 138 140 141 150 155 156 157 158 159 160 161 162 163 164 165 166 167 168 169 170 171 172 173 174 148 149 146 144 102 94 93 92 90 88 89 87 48 33 31 32 45 46 47 97 98 100 101 207 212 213 214 215 216 217 218 219 220 221 222 223 224 225 226 125 123 121 86 85 84 83 82 81 80 79 78 77 76 75 74 73 
